3078 2827 2755 2748 2599 2567 2456 2423 2339 2333 2221 2216 2167 2124 2033 2013 1972 1930 1844 1834 1765 1735 1677 1609 1578 1521 1501 1461 1437 1402 1398 1386 1372 1363 1348 1334 1321 1303 1285 1271 1252 1246 1232 1226 1210 1200 1186 1174 1168 1166 1156 1146 1139 1132 1127 1110 1103 1096 1085 1071 1069 1058 1056 1049 1041 1038 1028 1028 1024 1016 1014 1009 1006 997 995 992 990 987 985 979 977 974 970 968 967 962 960 956 952 949 948 944 943 940 938 937 935 929 929 927 926 922 919 919 919 917 917 916 915 912 912 911 910 910 909 906 905 903 903 903 898 897 895 888 885 883 877 877 876 876 876 875 875 875 874 874 872 872 871 870 868 867 866 866 863 862 862 861 861 860 860 860 860 860 853 853 853 853 853 853 853 853 853 853 853 853 853 853 853 853 853 853 853 853 853 853 853 853 853 853 853 853 852 852 852 852 852 852 852 852 852 852 852 852 852 852 852 852 852 852 852 852 852 852 852 852 852 852 852 852 852 852 852 852 852 852 852 852 852 852 852 852 852 852 852 852 852 852 852 852 852 852 852 852 852 852 852 852 852 852 852 852 852 852 852 852 852 852 852 852 852 852 852 852 852 852 852 852 852 852 852 852 852 852 852 852 852 852 852 852 852 852 852 852 852 852 852 852 852 852 852 852 852 852 852 852 852 852 852 852 852 852 852 852 852 852 852 852 852 852 852 852 852 852 852 852 852 852 852 852 852 852 852 852 852 852 852 852 852 852 852 852 852 852 852 852 852 852 852 852 852 852 852 852 852 852 852 852 852 852 852 852 852 852 852 852 852 852 852 852 852 852 852 852 852 852 852 852 852 852 852 852 852 852 852 852 852 852 852 852 852 852 852 852 852 852 852 852 852 852 852 852 852 852 852 852 852 852 852 852 852 852 852 852 852 852 852 852 852 852 852 852 852 852 852 852 852 852 852 852 852 852 852 852 852 852 852 852 852 852 852 852 852 852 852 852 852 852 852 852 852 852 852 852 852 852 852 852 852 852 852 852 852 852 852 852 852 852 852 852 852 852 852 852 852 852 852 852 852 852 852 852 852 852 852 852 852 852 852 852 852 852 852 852 852 852 852 852 852 852 852 852 852 852 852 852 852 852 852 852 852 852 852 852 852 852 852 852 852 852 852 852 852 852 852 852 852 852 852 852 852 852 852 852 852 852 852 852 852 852 852 852 852 852 852 852 852 852 852 852 852 852 852 852 852 852 852 852 852 852 852 852 852 852 852 852 852 852 852 852 852 852 852 852 852 852 852 852 852 852 852 852 852 852 852 852 852 852 852 852 852 852 852 852 852 852 852 852 852 852 852 852 852 852 852 852 852 852 852 852 852 852 852 852 852 852 852 852 852 852 852 852 852 852 852 852 852 852 852 852 852 852 852 852 852 852 852 852 852 852 852 852 852 852 852 852 852 852 852 852 852 852 852 852 852 852 852 852 852 852 852 852 852 852 852 852 852 852 852 852 852 852 852 852 852 852 852 852 852 852 852 852 852 852 852 852 852 852 852 852 852 852 852 852 852 852 852 852 852 852 852 852 852 852 852 852 852 852 852 852 852 852 852 852 852 852 852 852 852 852 852 852 852 852 852 852 852 852 852 852 852 852 852 852 852 852 850 850 850 848 848 848 848 848 848 848 848 848 848 848 848 848 848 848 848 848 848 848 848 848 848 848 848 848 848 848 848 848 848 848 848 848 848 848 848 848 848 848 848 848 848 848 848 848 848 848 848 848 848 848 848 848 848 848 848 848 848 848 848 848 848 848 848 848 848 848 848 848 848 848 848 848 848 848 848 848 848 848 848 848 848 848 848 848 848 848 848 848 848 848 848 848 848 848 848 848 848 848 848 848 848 848 848 848 848 848 848 848 848 848 848 848 848 848 848 848 848 848 848 848 848 848 848 848 848 848 848 848 848 848 848 848 848 848 848 848 848 848 848 848 848 848 848 848 848 848 848 848 848 848 848 848 848 848 848 848 848 848 848 848 848 848 848 848 848 848 848 848 848 848 848 848 848 848 848 848 848 848 848 848 848 848 848 848 848 848 848 848 848 848 848 848 848 848 848 848 848 848 848 848 848 848 848 848 848 848 848 848 848 848 848 848 848 848 848 848 848 848 848 848 848 848 848 848 848 848 848 848 848 848 848 848 848 848 848 848 848 848 848 848 848 848 848 848 848 848 848 848 848 848 848 848 848 848 848 848 848 848 848 848 848 848 848 848 848 848 848 848 848 848 848 848 848 848 848 848 848 848 848 848 848 848 848 848 848 848 848 848 848 848 848 848 848 848 848 848 848 848 848 848 848 848 848 848 848 848 848 848 848 848 848 848 848 848 848 848 848 848 848 848 848 848 848 848 848 848 848 848 848 848 848 848 848 848 848 848 848 848 848 848 848 848 848 848 848 848 848 848 848 848 848 848 848 848 848 848 848 848 848 848 848 848 848 848 848 848 848 848 848 848 848 848 848 848 848 848 848 848 848 848 848 848 848 848 848 848 848 848 848 848 848 848 848 848 848 848 848 848 848 848 848 848 848 848 848 848 848 848 848 848 848 848 848 848 848 848 848 848 848 848 848 848 848 848 848 848 848 848 848 848 848 848 848 848 848 848 848 848 848 848 848 848 848 848 848 848 848 848 848 848 848 848 848 848 848 848 848 848 848 848 848 848 848 848 848 848 848 848 848 848 848 848 848 848 848 848 848 848 848 848 848 848 848 848 848 848 848 848 848 848 848 848 848 848 848 848 848 848 848 848 848 848 848 848 848 848 848 848 848 848 848 848 848 848 848 848 848 848 848 848 848 848 848 848 848 848 848 848 848 848 848 848 848 848 848 848 848 848 848 848 848 848 848 848 848 848 848 848 848 848 848 848 848 848 848 848 848 848 848 848 848 848 848 848 848 848 848 848 848 848 848 848 848 848 848 848 848 848 848 848 848 848 848 848 848 848 848 848 848 848 848 848 848 848 848 848 848 848 848 848 848 848 848 848 848 848 848 848 848 848 848 848 848 848 848 848 848 848 848 848 848 848 848 848 848 848 848 848 848 848 848 848 848 848 848 848 848 848 848 848 848 848 848 848 848 848 848 848 848 848 848 848 848 848 848 848 848 848 848 848 848 848 848 848 848 848 848 848 848 848 848 848 848 848 848 848 848 848 848 848 848 848 848 848 848 848 848 848 848 848 848 848 848 848 848 848 848 848 848 848 848 848 848 848 848 848 848 848 848 848 848 848 848 848 848 848 848 848 848 848 848 848 848 848 848 848 848 848 848 848 848 848 848 848 848 848 848 848 848 848 848 848 848 848 848 848 848 848 848 848 848 848 848 848 848 848 848 848 848 848 848 848 848 848 848 848 848 848 848 848 848 848 848 848 848 848 848 848 848 848 
3450 3240 3107 2984 2857 2771 2694 2606 2554 2476 2417 2351 2292 2230 2184 2134 2085 2037 1993 1943 1892 1840 1796 1748 1695 1640 1595 1558 1519 1481 1459 1432 1406 1387 1375 1362 1350 1337 1319 1300 1283 1268 1256 1245 1233 1222 1211 1199 1187 1178 1171 1164 1155 1147 1140 1130 1121 1110 1102 1098 1090 1079 1068 1060 1054 1048 1041 1037 1032 1028 1023 1017 1013 1010 1006 1002 996 992 990 988 984 980 976 973 970 969 968 965 961 956 952 949 947 943 942 940 938 936 935 933 929 928 925 925 923 920 918 918 916 915 914 913 912 911 910 909 908 907 905 904 902 902 901 897 895 890 884 883 877 876 876 875 875 875 875 874 873 873 873 872 871 870 869 866 866 865 865 862 861 860 860 860 860 860 859 859 859 853 853 853 853 853 853 853 853 853 853 853 853 853 853 853 853 853 853 853 853 853 853 853 853 853 852 852 852 852 852 852 852 852 852 852 852 852 852 852 852 852 852 852 852 852 852 852 852 852 852 852 852 852 852 852 852 852 852 852 852 852 852 852 852 852 852 852 852 852 852 852 852 852 852 852 852 852 852 852 852 852 852 852 852 852 852 852 852 852 852 852 852 852 852 852 852 852 852 852 852 852 852 852 852 852 852 852 852 852 852 852 852 852 852 852 852 852 852 852 852 852 852 852 852 852 852 852 852 852 852 852 852 852 852 852 852 852 852 852 852 852 852 852 852 852 852 852 852 852 852 852 852 852 852 852 852 852 852 852 852 852 852 852 852 852 852 852 852 852 852 852 852 852 852 852 852 852 852 852 852 852 852 852 852 852 852 852 852 852 852 852 852 852 852 852 852 852 852 852 852 852 852 852 852 852 852 852 852 852 852 852 852 852 852 852 852 852 852 852 852 852 852 852 852 852 852 852 852 852 852 852 852 852 852 852 852 852 852 852 852 852 852 852 852 852 852 852 852 852 852 852 852 852 852 852 852 852 852 852 852 852 852 852 852 852 852 852 852 852 852 852 852 852 852 852 852 852 852 852 852 852 852 852 852 852 852 852 852 852 852 852 852 852 852 852 852 852 852 852 852 852 852 852 852 852 852 852 852 852 852 852 852 852 852 852 852 852 852 852 852 852 852 852 852 852 852 852 852 852 852 852 852 852 852 852 852 852 852 852 852 852 852 852 852 852 852 852 852 852 852 852 852 852 852 852 852 852 852 852 852 852 852 852 852 852 852 852 852 852 852 852 852 852 852 852 852 852 852 852 852 852 852 852 852 852 852 852 852 852 852 852 852 852 852 852 852 852 852 852 852 852 852 852 852 852 852 852 852 852 852 852 852 852 852 852 852 852 852 852 852 852 852 852 852 852 852 852 852 852 852 852 852 852 852 852 852 852 852 852 852 852 852 852 852 852 852 852 852 852 852 852 852 852 852 852 852 852 852 852 852 852 852 852 852 852 852 852 852 852 852 852 852 852 852 852 852 852 852 852 852 852 852 852 852 852 852 852 852 852 852 852 852 852 852 852 852 852 852 852 852 852 852 852 852 852 852 852 852 852 852 852 852 852 852 852 852 852 852 852 852 852 852 852 852 852 852 852 852 852 852 852 852 852 852 852 852 852 852 852 852 852 852 852 852 852 852 852 852 852 852 852 852 852 852 852 852 852 852 852 851 851 851 849 849 849 848 848 848 848 848 848 848 848 848 848 848 848 848 848 848 848 848 848 848 848 848 848 848 848 848 848 848 848 848 848 848 848 848 848 848 848 848 848 848 848 848 848 848 848 848 848 848 848 848 848 848 848 848 848 848 848 848 848 848 848 848 848 848 848 848 848 848 848 848 848 848 848 848 848 848 848 848 848 848 848 848 848 848 848 848 848 848 848 848 848 848 848 848 848 848 848 848 848 848 848 848 848 848 848 848 848 848 848 848 848 848 848 848 848 848 848 848 848 848 848 848 848 848 848 848 848 848 848 848 848 848 848 848 848 848 848 848 848 848 848 848 848 848 848 848 848 848 848 848 848 848 848 848 848 848 848 848 848 848 848 848 848 848 848 848 848 848 848 848 848 848 848 848 848 848 848 848 848 848 848 848 848 848 848 848 848 848 848 848 848 848 848 848 848 848 848 848 848 848 848 848 848 848 848 848 848 848 848 848 848 848 848 848 848 848 848 848 848 848 848 848 848 848 848 848 848 848 848 848 848 848 848 848 848 848 848 848 848 848 848 848 848 848 848 848 848 848 848 848 848 848 848 848 848 848 848 848 848 848 848 848 848 848 848 848 848 848 848 848 848 848 848 848 848 848 848 848 848 848 848 848 848 848 848 848 848 848 848 848 848 848 848 848 848 848 848 848 848 848 848 848 848 848 848 848 848 848 848 848 848 848 848 848 848 848 848 848 848 848 848 848 848 848 848 848 848 848 848 848 848 848 848 848 848 848 848 848 848 848 848 848 848 848 848 848 848 848 848 848 848 848 848 848 848 848 848 848 848 848 848 848 848 848 848 848 848 848 848 848 848 848 848 848 848 848 848 848 848 848 848 848 848 848 848 848 848 848 848 848 848 848 848 848 848 848 848 848 848 848 848 848 848 848 848 848 848 848 848 848 848 848 848 848 848 848 848 848 848 848 848 848 848 848 848 848 848 848 848 848 848 848 848 848 848 848 848 848 848 848 848 848 848 848 848 848 848 848 848 848 848 848 848 848 848 848 848 848 848 848 848 848 848 848 848 848 848 848 848 848 848 848 848 848 848 848 848 848 848 848 848 848 848 848 848 848 848 848 848 848 848 848 848 848 848 848 848 848 848 848 848 848 848 848 848 848 848 848 848 848 848 848 848 848 848 848 848 848 848 848 848 848 848 848 848 848 848 848 848 848 848 848 848 848 848 848 848 848 848 848 848 848 848 848 848 848 848 848 848 848 848 848 848 848 848 848 848 848 848 848 848 848 848 848 848 848 848 848 848 848 848 848 848 848 848 848 848 848 848 848 848 848 848 848 848 848 848 848 848 848 848 848 848 848 848 848 848 848 848 848 848 848 848 848 848 848 848 848 848 848 848 848 848 848 848 848 848 848 848 848 848 848 848 848 848 848 848 848 848 848 848 848 848 848 848 848 848 848 848 848 848 848 848 848 848 848 848 848 848 848 848 848 848 848 848 848 848 848 848 848 848 848 848 848 848 848 848 848 848 848 848 848 848 848 848 848 848 848 848 848 848 848 848 848 848 848 848 848 848 848 848 848 848 848 848 848 848 848 848 848 848 848 848 848 848 848 848 848 848 848 848 848 848 848 848 848 848 848 848 848 848 848 848 848 848 848 848 848 848 848 848 848 848 848 848 848 848 848 848 848 848 848 848 848 848 848 848 848 848 848 848 848 848 848 848 848 848 848 848 848 848 848 848 848 848 848 848 848 848 848 848 848 848 848 848 848 848 848 848 